
 102   30
  10   10   10   10   10   10   10   10   10   10   10   10   10   10   10   10   10   10   10   10   10   10   10   10   10   10   10   10   10   10

   0   0   0   0   0   0   0   0   0   0   0   0   0   0   0   0   0   0   0   0   0   0   0   0   0   0   0   0   0   0   0  29 2 3 4 5 6 8 9 10 11 12 13 15 16 17 18 19 20 21 22 23 26 28 29 33 37 38 39 43 50 
   8   0   0   0   0   0   0   0   0   0   0   0   0   1   0   0   0   3   0   1   0   0   0   0   0   0   0   0   0   0   2   5 59 54 41 30 7 
   6   0   0   0   1   0   6   0   1   0   0   0   0   0   0   0   0   0   0   0   0   0   1   4   1   0   0   0   0   0   3  15 100 99 97 75 66 63 57 56 54 53 51 47 45 34 14 
   9   0   0   0   0   3   0   0   0   0   0   0   0   0   0   0   0   5   1   0   0   0   0   0   8   0   0   0   0   0   0  12 68 66 58 57 53 48 47 46 44 42 25 14 
   2   0   3   0   5   0   0   0   0   0   0   0   0   0   2   0   0   0   0   0   0   0   0   0   0   0   0   0   0   0   0  15 77 74 72 63 61 57 56 54 53 46 44 42 41 36 35 
   2   0   0   1   0   0   0   0   0   0   0   0   0   0   0   0   0   0   0   0   0   0   0   0   0   0   0   0   0   0   0  14 76 75 73 72 68 66 63 61 60 58 48 47 45 25 
   7   0   0   0   0   0   0   0   0   0   0   0   0   0   0   0   0   0   0   0   0   0   0   0   0   0   0   0   0   0   0  12 100 75 73 63 60 58 56 49 47 45 27 24 
  10   0   7   0   0   0   0   0   0   0   0   0   0   0   0   0   0   0   0   0   0   0   0   0   0   0   0   0   0   0   0  17 98 96 77 75 74 73 72 68 62 60 57 54 52 48 46 45 32 
   3   2   0   0   0   5   0   0   0   0   0   0   0   0   2   0   0   0   0   0   0   0   0   0   0   2   0   0   0   0   0  22 101 100 99 98 97 96 94 93 75 73 72 71 68 66 65 60 57 53 51 49 47 35 
   4   5   0   0   5   0   0   0   0   0   0   0   2   0   0   0   0   0   0   0   0   0   0   0   0   0   0   0   2   0   0  16 101 96 94 77 76 75 74 73 67 64 63 61 52 48 42 27 
  10  10   0   0   0   8   0   0   0   0   0   0   0   0   0   0   0   0   5   0   0   0   0   0   0   0   0   0   0   0   0  11 99 75 72 68 53 51 49 48 45 42 25 
   1   0   0   0   0   0   0   0   8   0   0   0   0   0   0   0   0   0   0   6   2   0   9   0   0   0   0   0   4   0   0  19 99 98 97 94 93 75 73 72 71 66 65 62 60 59 54 52 49 47 40 
   8   0   0   0   0   0   1   0   0   0   0   0   0   0   0   2   0   0   0   4   0   0   0   0   0   0   0   0   0   0   0  10 100 66 65 60 59 57 54 46 31 30 
   4   0   0   0  10   0   0   0   0   0   0   0   0   0   0   0   1   0   0   5   0   0   0   0   0   0   0   0   0   0   0  15 98 96 95 94 93 76 74 72 71 67 65 62 60 49 35 
   6   0   0   0   0   0   4   0   0   0   0   0   0  10   0   7   0   0   0   0   0   0   0   0   0   0   0   0   0   0   0  18 100 99 98 97 94 93 90 88 72 71 68 67 66 64 61 56 55 52 
   7   0   0   0   0   0   8   0   0   0   0   0   0   0   0   0   0   6   0   0   0   0   0   0   0   0   1   0   0   0   7  17 101 99 98 96 91 89 88 87 76 69 67 66 65 64 61 58 44 
   2   0   0   7   0   3   0   0   0   0   0   0   0   0   0   9   0   0   0   0   0   0   0   0   0   0   0   0   0   0   0  14 98 97 96 94 84 68 66 64 62 61 60 51 48 47 
   9   0   0   0   0   0   0   0   0   0   0   0   0   0   0   0   0   0   0   0   0   0   0   0   0   0   0   1   0   2   0  13 100 93 91 75 73 71 66 65 59 58 57 53 49 
   1   3   0   0   0   0   0   1   0   0   0   1   0   0   0   0   0   0   0   0   0   0   0   0   0   0   6   0   0   0   0  14 99 96 95 84 74 73 68 64 62 60 55 53 52 48 
   7   9   0   0   0   0   0   0   0   0   0   0   0   0   0   0   0   0   0   0   0   1   0   0   0   0   0   0   0   0   0  12 99 97 94 93 90 88 77 72 55 52 49 40 
   5   0   0   0   0   0   7   0   0   3   0   0   0   0   0   0   0   0   0   0   0   0   0   0   0   0   0   0   7   0   0  15 100 94 92 75 73 72 67 66 65 62 61 57 55 53 48 
   3   0   0   5   0   0   8   0   0   0   0   0   0   0   0   0   0   0   0   0   0   0   0   0   0   7   0   0   0   0   0  14 100 99 98 97 96 94 84 69 68 63 62 61 55 48 
   4   0   6   0   6   9   0   0   0   0   0   0   0   0   0  10   0   0   2   0   0   0   0   0   5   0   0   0   0   0   0  16 100 98 97 96 95 94 93 85 81 73 72 71 65 61 53 47 
   9   0   0   0   0  10   0   7   5   0   0   0   0   0   0   0   0   0   0   5   0   0   0   0   0  10   0   0   0   0   0  15 101 99 97 96 95 94 92 91 84 66 62 61 55 53 48 
   1   0   0   0   4   0   0   0   0   3   0   0   0   0   0   0   0   0   0   0   0   0   0   0   4   0   0   0   0   0   0  16 101 100 98 97 96 93 92 90 89 88 81 71 62 56 55 52 
   4   0   3   0   2   0   0   0   0   0   0   0   0   0   6   0   0   0   0   0   0   0   0   0   0   0   6   9   0   5   0  19 98 97 95 93 91 90 89 88 85 84 81 77 76 71 69 68 62 61 55 
   4   0   0   8   0   0   0   0   0   5   1   0   0   0   0   0   0   0   0   0   0   0   0   7   0   0   0   6   0   6   0  11 99 93 90 89 71 69 65 62 55 53 51 
   8   0   0   0   8   0   0   0   0   0   0   0  10   5   6   8   0   0   0   0   0  10   0   0   0   0   0   0   0   0   0  11 99 98 96 94 92 86 83 65 63 62 48 
  10   0   0   0   0   0   0   0   0   0   0   0   0   6   0   0   0   0   0   0   0   0   0   0   0   0   0   5   0   0   0  14 99 97 94 93 90 88 86 84 80 76 72 69 61 51 
   7   0   0   0   0   0   0   2   0   0   0   0   0   0   6   0   0   0   0   0   0   0   0   0   0   0   0   0   8   0   0  16 97 95 94 93 92 90 88 87 86 85 81 74 72 71 69 61 
   9   0   0   8   0   0   0   0   0   0   0   0   0   0   0   0   0   0   0   0   0   0   5   0   5   0   6   0   0   0   4  16 99 98 96 95 93 91 90 88 85 83 81 71 69 67 64 55 
   2   0   0   0   7   0   0   8   0   0   0   0   0   0   0   0   0   0   0   0   0   0   0   0   0   0   0   0  10   0   0  14 100 93 91 90 88 87 86 83 82 81 71 70 58 56 
   1   0   0   8   0   0   0   5   0   0   0   0   0   0   8   0   0   0   0   6   7   0   0   0   0   0   0   0   0   0   0  10 100 92 90 88 87 80 75 69 66 49 
   3   0   0   4   8   0   6   0   0   0   0   0   0   5   0   5   0   0   0   0   0   0   0   0   7   0   0   0   0   0   0  11 101 98 91 87 81 74 72 71 69 68 64 
   8   0   0   0   0   0   0  10   8   0   0   0   0   0   0   0   0   0   0   0   5   9   0   0   0   0   8   0   0   0   7   9 92 90 89 88 84 82 81 55 52 
   4   0   0   0   0   0   8   0   0   0   0   0   0   0   0   9   0   0   0   0   0   0   0   0   0   2   0   9   0   0   0  16 101 100 96 95 93 92 89 88 87 86 84 83 82 80 79 69 
   1   0   0   0   0   0  10   0   0   0   0   0   0   0   0   0   0   0   0   0   0   0   0   0   0   0   0   0   0   0   0  14 99 94 93 91 90 89 87 86 85 84 81 77 71 69 
   1   0   0   0   0   0   4   0   0   0   0   0   0   0   8   0   3   0   0   0   0   0   0   0   8   0   9   0   7   0   0   9 97 96 92 84 71 66 64 61 55 
   7   9   0   0   0   0   0   0   0   0   4   0   0   0   9   0   0   0   0   0   0   0   0   0   0   0   0   0   0   0   0  11 96 94 93 90 88 85 84 81 73 71 55 
   5   0   0   0   0   0   0   0   0   0   0   0   0   0   2   0   0   0   0   0   4   0   0   0   0   0   0   0   0   0   0  14 100 96 95 92 91 89 85 84 83 82 81 80 79 69 
   1   0   0   0   0   0   0   0   0   0   0   0   0   0   0   0   0   5   0   0   0   0   0   0   0   3   0   5   0   0   0  14 98 96 94 90 88 85 84 83 81 80 79 73 70 64 
   8   0   0   0   0   6   5   0   0   0   0   0   0   0   0   3   0   0   0   0   0   0   0   0   0   0  10   0   7   0   0  13 98 97 93 91 88 87 86 85 81 79 71 70 65 
   7   0   0   0  10   0   0   0   0   0  10   0   0   6   0   0   0   0   0   8   0   0   0   0   4   0   0   0   0   0   0  13 94 91 90 89 88 86 84 83 82 81 80 79 69 
   9   0   0   0   0   0   0   0   0   4   0   0   0   0   0   0   0   0   0   0   9   0   0   0   0   0   0   0   0   0   8  10 97 92 90 85 84 83 81 71 70 62 
   9   0   0   0   6   0   0   0   0   0   0   0   0   0   0   5   0   0  10   0   0   0   7  10   0   0   0   0   0   0   0   9 92 89 87 85 83 81 71 67 64 
   6   0   0   0   0   0   3   0   0   0   0   6   5   0   0   0   7   0   0   0   0   0   0   0   0   0   5   0   0   0   5  10 99 87 86 85 84 83 82 81 79 69 
   7   0   0   0   5   0   0   0   0   0   0   0  10   0   0   0   0   0   8   3   0   0   7   0   0   0   0   0   0   0   0   6 91 89 83 82 69 55 
   2   0   7   0   6   0   0   0   0   0   0   0   0   0   0   0   0   0   0   0   0   0   6   0   0   8   0   0   0   0   0   9 93 90 89 88 87 85 81 71 70 
   9   0   0   0   0   3   0   0   0   0   3   0   0   0   0   0   0   0   0   0   0   6   0   0  10   0   0   0   0   0   0   7 89 85 84 79 70 64 61 
   8   0   0   0   0   0   0   0   0   0   0   0   4   0   0   0   0   0   0   0   0   0   0   0   0   0   3   0   0   0   0   6 97 92 91 81 71 62 
   7   0   0   0   0   5   0   0   0   0   0   0   0   0   0   0   0   0   0   8   0   0   0   0   0   0   0   0   0   0   0   7 95 92 91 85 81 79 78 
   3   0   0   9   0   0   0   0   0   0   0   0   0   0   0   0   0   0   8   0   0   0   8   0   0   0   6   0   0   0   0   5 91 85 83 79 69 
   3   0   0   0   0   3   0   0   0   0   5   0   0   0   6   0   0   0   0   0   7   0   0   0   0   0   5   0   0   0   0   6 88 87 83 82 80 78 
   3   3   0   0   0   0   8   0   0   5   8   0   0   0   0   0   0   0   0   0   0   0   0   0   0   0   0  10   0   0   0   6 90 88 86 84 79 78 
   1   0   0   0   0   0   0   0   0   0   7   0   0   0   5   3   0   0   0   0   0   0   3   0   0   0   0   7   0   0   0   5 87 86 80 79 70 
   6   7   0   0   0   0   0   0   0   0   0   0   0   0   0   0   0   0   9   9   0   0   0   0   0   0   0   0   0   0   0   4 85 79 78 65 
   2   0   0   0   0   0   5   7   0   0   0   0   0   0   0   0   0   4   0   7   0   0   0   5   0   0   0   0   0   0   7   5 90 86 82 81 78 
   7   0   0   0   0   0   0   0   5   0   7   0   0   0   0   0   0   0   0   0   0   0   0   7   0   0   6   6   0   0   0   5 95 94 84 80 78 
   9   0   0   0   0   0   0   0   0   0   0   0   5   0   8   0   6   0   0   0   0   0   0   5   0   5   0   0   0   0   0   2 74 69 
   3   0   0   0   0   0   0   0   0   0   0   0   0   0   0   9  10   0   0   0   0   0   0   0   0   0   0   0   0   0   6   4 86 81 80 78 
   8   0   0   0   0   0   0   0   0   6   0   0   0   6   6   6   0   0   0   5   4   0   0   0   0   0   0   0   0   0   0   3 83 82 78 
   5   0   0   0   8   0   0   0   0   0   0   0   0   9   0   0   0   0   0   7   0   0   0   0   0   8   0   0   0   0   0   3 82 79 78 
   3   0   6   0   7   0   8   7   0   0   0   0   0   0   0   0   6  10   0   0   0   0   0   6   0   0   0   0   0   0   0   3 91 79 78 
   8   0   0   0   7   0   0   8   0   0   0   0   6   7   0   0   0   0   0   0   0   0   0   0   0   0   0   0   0   0   0   2 82 78 
   3   4   0   0   0   0   0   0   0   0   0   6   0   0   0   0   0   0   0   9   0   0   0   0   0   0   0   0   0   1   7   2 84 80 
  10   0   0   0   0  10   0   0   0   0   0   0   0   0   0   0   0   0   0   0   0   0   0   0   0   0   0   0   0   0   0   2 86 81 
   8   0   0   0   4   0   0   0   0   0   0   0   0   0   0   0   0   0   0   0   0   0   0   5   0   6   0   0   0   0   0   2 79 78 
   2   0   0   0   0   0   0   0   7   0   0   0   0   7   0   0   3   0   0   0   0   0   0   0   0   0   0   0   0   0   0   2 92 83 
   3   0   0   0   0   0   0   0   0   0   0   8   0   0   0   0   4   6   5   0   0   0   0   8   0   8   0   0   0   0   5   1 70 
   9   0   0   0   0   0   0   0   0   9   0   0   0   0   0   0   0   0   0   0   0   0   0   0   0   0   0   0   8   0   0   1 78 
   8   7   0   0   0   0   0   0   0   0   9   0   0   0   0   0   0   0   0   0   0   0   0   0   0   0   0   0   0   0   0   1 80 
   2   0   4   0   0  10   0   0   0   0   0   6   0   0   0   0   9   0   0   0   0   0   0   0   0   0   9   0   0   0   0   1 89 
   8   0   0   0   0   0   0   0   0   0   0   5   0   0   0   0   0   0   0   7   0   0   0   0   0   0   0   0   0   8  10   1 78 
   2   0   0   0   7   0   0   0   0   0   0   0  10   7   0   4   0   0   0   8   0   0   0   0   0   6   3   0   0   0   0   1 79 
   3   0   0   0   5   0   0   0   8   0   0   0   0   0   0   0   0   0   0   9  10   0   0   0   0   0   0   0   0   0   0   1 79 
   8   0   0   0   0   0   0   0   0   0   6   0   1   0   0   0   0   6   0   0   0   0   0   0   0   0   5   0   0   0   0   1 78 
   1   0   0   0   7   0   0   0   0   0   0   0   0   0   0   0   0   0   0   0   0   0   0   0   7   0   0   0   0   0   0   1 79 
   2   9   0   0   0   0   7   0   0   9   0   0   0   0   0   0   0   0   0   0   0   0   0   0   0   0   0   0   0   0   0   1 102
  10   0   0   0   0   0   0   0   0   0   0   0   0   0   0   0   7   0   7   5   0   0   0   0   0   0   0   0   0   4   0   1 102
   3   9   0   0   0   0   0   4   0   0   0   0   0   0   0   0   0   0   6   0   0   0   0   0   0   0   0   0   0   0   0   1 102
   9   0   0   0  10   0   4   5   0   0   0   0   0   0   0   0   0   0   0   0   0   4   0   0   0   0   0   0   5   0   6   1 102
   9   0   0   0   0   0   0   0   7   0   0   0   5   0   6   0   0   0   0   0   0   0   0   0   0   0   0   0   0   0   0   1 102
  10   0   0   0   0   0   9   9   0   0   0   0   0   0   0   0   0   0   0   4   0   0   0   0   0   0   0   4   0   0   0   1 102
   1   0   0   0   0   0   8   0   0   0   0   0   0   0   0   5   0   0   0   6   0   6   0   0   0   0   0   0   4   0   7   1 102
   8   0   8   4   0   0   0   0   0   0   0   0   0   0   0   0   0  10   0   0   0   0   0   0   0   0   0   0   0   0   0   1 102
   4   0   0   0   0   0   0   0   0   0   6   0   4   0   0   0   0   0   0   0   0   0   0   0   4   9   0   0   0   0   0   1 102
  10   0   0   0   0   0   0   0   0   0   0   0   0   0   0   0   0   0   0   0   0   0   0   0   0   0   0   0   0   0   0   1 102
   1   4   0   0   2   3   0   0   0   0   0   0   0   0   0   0   0   0   0   8   0   0   0   0   0   0   0   6   0   9   0   1 102
   9   4   6   0   0   0   0   0   0   0   0   0   0   0   0   0   0   0   0   0   0   0   3   0   0   0   0   0   0   0   0   1 102
   1   4   0   0   0   0   0   6   0  10   0   0   0   0   0   0   0   0   0   0   0   0   0   0   0   0   0   4   0   0   0   1 102
   1   0   0   0   0   0   0   0   0   0   6   0   0   0  10   0   0   0   0   0   0   0  10   0   0   0   0   0   9   0   0   1 102
   7   0   0   0   0   0   0   0   0   0   0   9   0   5   0   0   0   0   0   0   0   0   7   0   0   4   0   0   2   0   0   1 102
   1   0   0   0   0   0   5   0   0   0   0   7   0   0   0   0   7   0   0   0   0   0   0   0   0   0   9   0   5   0   0   1 102
   3   0   0   0   0   0   0   0   0   0   0   0   0   0   0   0   0   0   0   0   0   0   0   0   0   6   0   0   0   0   0   1 102
   2   6   0   0   4   0   0   0   5   0   0   0   0   0   0   0   0   0   0   0   0   0   0   7   7   0   0   0   0   0   0   1 102
   2   7  10   0   0   0   4   0   0   0   0   0  10   4   0   0   0   0   0   0   0   0   0   2   0   0   0   0   0   6   0   1 102
   7   0   0   0   0   0   0   5   0   0   0   0   0   0   0   0   0   0   0   0   0   0   0   0   0   0   0   0   0   0   0   1 102
   2   0   0   0   0   0   4   0   0   0   5   0   0   0   0   0   0   0   5   0   0   0   0   0   0   0   5   0   0   9   0   1 102
   5   0   0   0   0   0   0   0   0   0   0   0   0   6   0   0   0   5   0   0   0   0   0   0   8   0   0   0   0  10   6   1 102
   7   0   0   0   0   0   0   0   0   0   0   0   0   0   0   5   0   0   0   0   0   0   0   0   0   0   0   0   0   0   0   1 102
   1   0   0   0   0   0   0   0   0   0   7   0   0   0   0   0   9   0   0   2   0   0   0   0   0   0   0   0   0   0   0   1 102
   0   0   0   0   0   0   0   0   0   0   0   0   0   0   0   0   0   0   0   0   0   0   0   0   0   0   0   0   0   0   0   0 
